12
0 1 2 3 4 5 6 7 8 9 10 11
3 8 0 1 3 5 6 9 10 11
4 9 0 1 2 4 5 6 7 8 11
9 5 4 5 8 9 10
9 5 1 7 8 9 10
9 2 4 9
2 7 0 1 6 8 9 10 11
1 8 2 3 5 6 8 9 10 11
9 2 4 7
6 9 0 1 2 3 4 5 6 7 9
8 6 3 5 7 8 9 10
1 8 0 3 4 6 7 9 10 11


